(assert (forall ((pkt_0_6_8_0  Int  )(pkt_1_7_9_0  Int  )(state_group_0_state_0_8_a_0  Int  )(state_group_1_state_0_9_b_0  Int  )(state_group_2_state_0_a_c_0  Int  )) (let ((_n0 pkt_0_6_8_0 ))
(let ((_n1 state_group_0_state_0_8_a_0 ))
(let ((_n2 (+   _n1   _n0 ) ))
(let ((_n3 false ))
(let ((_n4 (=   _n0   (ite  _n3  1 0) ) ))
(let ((_n5 (not  _n4 ) ))
(let ((_n6 (ite (=  _n0  0)  (ite  _n3  1 0)   _n0  ) ))
(let ((_n7 (ite (=  (ite  _n5  1 0)  1)  _n6   (ite  _n3  1 0)  ) ))
(let ((_n8 (=   _n7   (ite  _n3  1 0) ) ))
(let ((_n9 (not  _n8 ) ))
(let ((_n10 (ite (=  _n7  0)  (ite  _n3  1 0)   _n7  ) ))
(let ((_n11 (+   _n1   _n10 ) ))
(let ((_n12 (ite (=  (ite  _n9  1 0)  1)  _n11   _n1  ) ))
(let ((_n13 (=   _n12   _n2 ) ))
(let ((_n15 30 ))
(let ((_n16 pkt_1_7_9_0 ))
(let ((_n17 (<   _n16   _n15 ) ))
(let ((_n18 state_group_1_state_0_9_b_0 ))
(let ((_n19 (+   _n18   _n16 ) ))
(let ((_n20 (ite  _n17   _n19   _n18  ) ))
(let ((_n21 (=   _n19   _n20 ) ))
(let ((_n23 state_group_2_state_0_a_c_0 ))
(let ((_n24 true ))
(let ((_n25 (+   _n23   (ite  _n24  1 0) ) ))
(let ((_n26 (ite  _n17   _n25   _n23  ) ))
(let ((_n27 (=   _n25   _n26 ) ))
(let ((_n29 (ite (=  (ite  _n9  1 0)  1)  _n10   (ite  _n3  1 0)  ) ))
(let ((_n30 (=   _n29   _n0 ) ))
(implies  (and (and (>= state_group_2_state_0_a_c_0 0) (< state_group_2_state_0_a_c_0 1024 ))  (and (and (>= state_group_1_state_0_9_b_0 0) (< state_group_1_state_0_9_b_0 1024 ))  (and (and (>= state_group_0_state_0_8_a_0 0) (< state_group_0_state_0_8_a_0 1024 ))  (and (and (>= pkt_1_7_9_0 0) (< pkt_1_7_9_0 1024 ))  (and (>= pkt_0_6_8_0 0) (< pkt_0_6_8_0 1024 )) ) ) ) )   (and  _n13  _n21  _n27  _n30 )  )))))))))))))))))))))))))))))))
(check-sat)
(get-model)
(exit)